data;
set K:= K1 K2 K3 K4 K5 K6 K7 K8 K9 K10 ;

set F:= F1 F2 F3 ;

set Q:= Q1 Q2 ;

param T:= 45;
param V: 
	K1  K2  K3  K4  K5  K6  K7  K8  K9  K10 :=
Q1	1   1   1   1   1   1   0   0   0   0   
Q2	0   0   0   0   0   0   1   1   1   1   
; # if resorce k is of type q

param TF:= 
K1 6
K2 6
K3 6
K4 6
K5 6
K6 6
K7 12
K8 12
K9 12
K10 12
; # number of continuous time slots resource can fly

param TR:= 
K1 2
K2 2
K3 2
K4 2
K5 2
K6 2
K7 4
K8 4
K9 4
K10 4
; #  number of continuous time slots resource k needs to rest between flights

param P:= 
K1 36
K2 36
K3 36
K4 36
K5 36
K6 36
K7 36
K8 36
K9 36
K10 36
; #  number of continuous time slots a pilot can be present including rest times for resource k 

param N:= 
K1 4
K2 4
K3 4
K4 4
K5 4
K6 4
K7 2
K8 2
K9 1
K10 2
; # max number of flights resource k can fly in the total time period

param A: 
	K1  K2  K3  K4  K5  K6  K7  K8  K9  K10 :=
1	1   1   1   1   1   1   1   1   0   1   
2	1   1   1   1   1   1   1   1   0   1   
3	1   1   1   1   1   1   1   1   0   1   
4	1   1   1   1   1   1   1   1   0   1   
5	1   1   1   1   1   1   1   1   0   1   
6	1   1   1   1   1   1   1   1   0   1   
7	1   1   1   1   1   1   1   1   0   1   
8	1   1   1   1   1   1   1   1   0   1   
9	1   1   1   1   1   1   1   1   0   1   
10	1   1   1   1   1   1   1   1   0   1   
11	1   1   1   1   1   1   1   1   0   1   
12	1   1   1   1   1   1   1   1   0   1   
13	1   1   1   1   1   1   1   1   0   1   
14	1   1   1   1   1   1   1   1   0   1   
15	1   1   1   1   1   1   1   1   0   1   
16	1   1   1   1   1   1   1   1   0   1   
17	1   1   1   1   1   1   1   1   0   1   
18	1   1   1   1   1   1   1   1   1   1   
19	1   1   1   1   1   1   1   1   1   1   
20	1   1   1   1   1   1   1   1   1   1   
21	1   1   1   1   1   1   1   1   1   1   
22	1   1   1   1   1   1   1   1   1   1   
23	1   1   1   1   1   1   1   1   1   1   
24	1   1   1   1   1   1   1   1   1   1   
25	1   1   1   1   1   1   1   1   1   1   
26	1   1   1   1   1   1   1   1   1   1   
27	1   1   1   1   1   1   1   1   1   1   
28	1   1   1   1   1   1   1   1   1   1   
29	1   1   1   1   1   1   1   1   1   1   
30	1   1   1   1   1   1   1   1   1   1   
31	1   1   1   1   1   1   1   1   1   1   
32	1   1   1   1   1   1   1   1   1   1   
33	1   1   1   1   1   1   1   1   1   1   
34	1   1   1   1   1   1   1   1   1   1   
35	1   1   1   1   1   1   1   1   1   1   
36	1   1   1   1   1   1   1   1   1   1   
37	1   1   1   1   1   1   1   1   1   1   
38	1   1   1   1   1   1   1   1   1   1   
39	1   1   1   1   1   1   1   1   1   1   
40	1   1   1   1   1   1   1   1   1   1   
41	1   1   1   1   1   1   1   1   1   1   
42	1   1   1   1   1   1   1   1   1   1   
43	1   1   1   1   1   1   1   1   1   1   
44	1   1   1   1   1   1   1   1   1   1   
45	1   1   1   1   1   1   1   1   1   1   
; # availability of resorce k in time slot t

param B: 
	F1  F2  F3  :=
Q1	0   0   0   
Q2	0   0   0   
; # if front f requires resources of type q

param U: 
	F1  F2  F3  :=
K1	0   0   0   
K2	0   0   0   
K3	0   0   0   
K4	0   0   0   
K5	0   0   0   
K6	0   0   0   
K7	0   0   0   
K8	0   0   0   
K9	1   1   1   
K10	0   0   0   
; # transit time of resource

param C:= 
K1 900
K2 900
K3 900
K4 1500
K5 4500
K6 2100
K7 5500
K8 5500
K9 5500
K10 5500
; #  water capacity of resource k

param S:= 
F1 8
F2 8
F3 9
; # max number of resources that can fly at front f in the same time slot

param D:= 

[*,*,F1 ]:  K1    K2    K3    K4    K5    K6    K7    K8    K9    K10   :=
1           1.45  1.45  1.45  1.45  1.16  1.45  0.87  0.87  0.87  0.87  
2           1.45  1.45  1.45  1.45  1.16  1.45  0.87  0.87  0.87  0.87  
3           1.45  1.45  1.45  1.45  1.16  1.45  0.87  0.87  0.87  0.87  
4           1.45  1.45  1.45  1.45  1.16  1.45  0.87  0.87  0.87  0.87  
5           1.45  1.45  1.45  1.45  1.16  1.45  0.87  0.87  0.87  0.87  
6           1.45  1.45  1.45  1.45  1.16  1.45  0.87  0.87  0.87  0.87  
7           1.45  1.45  1.45  1.45  1.16  1.45  0.87  0.87  0.87  0.87  
8           1.45  1.45  1.45  1.45  1.16  1.45  0.87  0.87  0.87  0.87  
9           1.45  1.45  1.45  1.45  1.16  1.45  0.87  0.87  0.87  0.87  
10          1.45  1.45  1.45  1.45  1.16  1.45  0.87  0.87  0.87  0.87  
11          1.45  1.45  1.45  1.45  1.16  1.45  0.87  0.87  0.87  0.87  
12          1.45  1.45  1.45  1.45  1.16  1.45  0.87  0.87  0.87  0.87  
13          1.45  1.45  1.45  1.45  1.16  1.45  0.87  0.87  0.87  0.87  
14          1.45  1.45  1.45  1.45  1.16  1.45  0.87  0.87  0.87  0.87  
15          1.45  1.45  1.45  1.45  1.16  1.45  0.87  0.87  0.87  0.87  
16          1.45  1.45  1.45  1.45  1.16  1.45  0.87  0.87  0.87  0.87  
17          1.45  1.45  1.45  1.45  1.16  1.45  0.87  0.87  0.87  0.87  
18          1.45  1.45  1.45  1.45  1.16  1.45  0.87  0.87  0.87  0.87  
19          1.45  1.45  1.45  1.45  1.16  1.45  0.87  0.87  0.87  0.87  
20          1.45  1.45  1.45  1.45  1.16  1.45  0.87  0.87  0.87  0.87  
21          1.45  1.45  1.45  1.45  1.16  1.45  0.87  0.87  0.87  0.87  
22          1.45  1.45  1.45  1.45  1.16  1.45  0.87  0.87  0.87  0.87  
23          1.45  1.45  1.45  1.45  1.16  1.45  0.87  0.87  0.87  0.87  
24          1.45  1.45  1.45  1.45  1.16  1.45  0.87  0.87  0.87  0.87  
25          1.38  1.38  1.38  1.38  1.10  1.38  0.83  0.83  0.83  0.83  
26          1.38  1.38  1.38  1.38  1.10  1.38  0.83  0.83  0.83  0.83  
27          1.38  1.38  1.38  1.38  1.10  1.38  0.83  0.83  0.83  0.83  
28          1.38  1.38  1.38  1.38  1.10  1.38  0.83  0.83  0.83  0.83  
29          1.38  1.38  1.38  1.38  1.10  1.38  0.83  0.83  0.83  0.83  
30          1.38  1.38  1.38  1.38  1.10  1.38  0.83  0.83  0.83  0.83  
31          1.38  1.38  1.38  1.38  1.10  1.38  0.83  0.83  0.83  0.83  
32          1.38  1.38  1.38  1.38  1.10  1.38  0.83  0.83  0.83  0.83  
33          1.38  1.38  1.38  1.38  1.10  1.38  0.83  0.83  0.83  0.83  
34          1.45  1.45  1.45  1.45  1.16  1.45  0.87  0.87  0.87  0.87  
35          1.45  1.45  1.45  1.45  1.16  1.45  0.87  0.87  0.87  0.87  
36          1.45  1.45  1.45  1.45  1.16  1.45  0.87  0.87  0.87  0.87  
37          1.45  1.45  1.45  1.45  1.16  1.45  0.87  0.87  0.87  0.87  
38          1.45  1.45  1.45  1.45  1.16  1.45  0.87  0.87  0.87  0.87  
39          1.45  1.45  1.45  1.45  1.16  1.45  0.87  0.87  0.87  0.87  
40          1.45  1.45  1.45  1.45  1.16  1.45  0.87  0.87  0.87  0.87  
41          1.45  1.45  1.45  1.45  1.16  1.45  0.87  0.87  0.87  0.87  
42          1.45  1.45  1.45  1.45  1.16  1.45  0.87  0.87  0.87  0.87  
43          1.45  1.45  1.45  1.45  1.16  1.45  0.87  0.87  0.87  0.87  
44          1.45  1.45  1.45  1.45  1.16  1.45  0.87  0.87  0.87  0.87  
45          1.45  1.45  1.45  1.45  1.16  1.45  0.87  0.87  0.87  0.87  

[*,*,F2 ]:  K1    K2    K3    K4    K5    K6    K7    K8    K9    K10   :=
1           1.52  1.52  1.52  1.52  1.21  1.52  0.91  0.91  0.91  0.91  
2           1.52  1.52  1.52  1.52  1.21  1.52  0.91  0.91  0.91  0.91  
3           1.52  1.52  1.52  1.52  1.21  1.52  0.91  0.91  0.91  0.91  
4           1.52  1.52  1.52  1.52  1.21  1.52  0.91  0.91  0.91  0.91  
5           1.52  1.52  1.52  1.52  1.21  1.52  0.91  0.91  0.91  0.91  
6           1.52  1.52  1.52  1.52  1.21  1.52  0.91  0.91  0.91  0.91  
7           1.52  1.52  1.52  1.52  1.21  1.52  0.91  0.91  0.91  0.91  
8           1.52  1.52  1.52  1.52  1.21  1.52  0.91  0.91  0.91  0.91  
9           1.52  1.52  1.52  1.52  1.21  1.52  0.91  0.91  0.91  0.91  
10          1.52  1.52  1.52  1.52  1.21  1.52  0.91  0.91  0.91  0.91  
11          1.52  1.52  1.52  1.52  1.21  1.52  0.91  0.91  0.91  0.91  
12          1.52  1.52  1.52  1.52  1.21  1.52  0.91  0.91  0.91  0.91  
13          1.52  1.52  1.52  1.52  1.21  1.52  0.91  0.91  0.91  0.91  
14          1.52  1.52  1.52  1.52  1.21  1.52  0.91  0.91  0.91  0.91  
15          1.52  1.52  1.52  1.52  1.21  1.52  0.91  0.91  0.91  0.91  
16          1.52  1.52  1.52  1.52  1.21  1.52  0.91  0.91  0.91  0.91  
17          1.52  1.52  1.52  1.52  1.21  1.52  0.91  0.91  0.91  0.91  
18          1.52  1.52  1.52  1.52  1.21  1.52  0.91  0.91  0.91  0.91  
19          1.52  1.52  1.52  1.52  1.21  1.52  0.91  0.91  0.91  0.91  
20          1.52  1.52  1.52  1.52  1.21  1.52  0.91  0.91  0.91  0.91  
21          1.52  1.52  1.52  1.52  1.21  1.52  0.91  0.91  0.91  0.91  
22          1.52  1.52  1.52  1.52  1.21  1.52  0.91  0.91  0.91  0.91  
23          1.52  1.52  1.52  1.52  1.21  1.52  0.91  0.91  0.91  0.91  
24          1.52  1.52  1.52  1.52  1.21  1.52  0.91  0.91  0.91  0.91  
25          1.44  1.44  1.44  1.44  1.15  1.44  0.86  0.86  0.86  0.86  
26          1.44  1.44  1.44  1.44  1.15  1.44  0.86  0.86  0.86  0.86  
27          1.44  1.44  1.44  1.44  1.15  1.44  0.86  0.86  0.86  0.86  
28          1.44  1.44  1.44  1.44  1.15  1.44  0.86  0.86  0.86  0.86  
29          1.44  1.44  1.44  1.44  1.15  1.44  0.86  0.86  0.86  0.86  
30          1.44  1.44  1.44  1.44  1.15  1.44  0.86  0.86  0.86  0.86  
31          1.44  1.44  1.44  1.44  1.15  1.44  0.86  0.86  0.86  0.86  
32          1.44  1.44  1.44  1.44  1.15  1.44  0.86  0.86  0.86  0.86  
33          1.44  1.44  1.44  1.44  1.15  1.44  0.86  0.86  0.86  0.86  
34          1.52  1.52  1.52  1.52  1.21  1.52  0.91  0.91  0.91  0.91  
35          1.52  1.52  1.52  1.52  1.21  1.52  0.91  0.91  0.91  0.91  
36          1.52  1.52  1.52  1.52  1.21  1.52  0.91  0.91  0.91  0.91  
37          1.52  1.52  1.52  1.52  1.21  1.52  0.91  0.91  0.91  0.91  
38          1.52  1.52  1.52  1.52  1.21  1.52  0.91  0.91  0.91  0.91  
39          1.52  1.52  1.52  1.52  1.21  1.52  0.91  0.91  0.91  0.91  
40          1.52  1.52  1.52  1.52  1.21  1.52  0.91  0.91  0.91  0.91  
41          1.52  1.52  1.52  1.52  1.21  1.52  0.91  0.91  0.91  0.91  
42          1.52  1.52  1.52  1.52  1.21  1.52  0.91  0.91  0.91  0.91  
43          1.52  1.52  1.52  1.52  1.21  1.52  0.91  0.91  0.91  0.91  
44          1.52  1.52  1.52  1.52  1.21  1.52  0.91  0.91  0.91  0.91  
45          1.52  1.52  1.52  1.52  1.21  1.52  0.91  0.91  0.91  0.91  

[*,*,F3 ]:  K1    K2    K3    K4    K5    K6    K7    K8    K9    K10   :=
1           1.49  1.49  1.49  1.49  1.18  1.49  0.89  0.89  0.89  0.89  
2           1.49  1.49  1.49  1.49  1.18  1.49  0.89  0.89  0.89  0.89  
3           1.49  1.49  1.49  1.49  1.18  1.49  0.89  0.89  0.89  0.89  
4           1.49  1.49  1.49  1.49  1.18  1.49  0.89  0.89  0.89  0.89  
5           1.49  1.49  1.49  1.49  1.18  1.49  0.89  0.89  0.89  0.89  
6           1.49  1.49  1.49  1.49  1.18  1.49  0.89  0.89  0.89  0.89  
7           1.49  1.49  1.49  1.49  1.18  1.49  0.89  0.89  0.89  0.89  
8           1.49  1.49  1.49  1.49  1.18  1.49  0.89  0.89  0.89  0.89  
9           1.49  1.49  1.49  1.49  1.18  1.49  0.89  0.89  0.89  0.89  
10          1.49  1.49  1.49  1.49  1.18  1.49  0.89  0.89  0.89  0.89  
11          1.49  1.49  1.49  1.49  1.18  1.49  0.89  0.89  0.89  0.89  
12          1.49  1.49  1.49  1.49  1.18  1.49  0.89  0.89  0.89  0.89  
13          1.49  1.49  1.49  1.49  1.18  1.49  0.89  0.89  0.89  0.89  
14          1.49  1.49  1.49  1.49  1.18  1.49  0.89  0.89  0.89  0.89  
15          1.49  1.49  1.49  1.49  1.18  1.49  0.89  0.89  0.89  0.89  
16          1.49  1.49  1.49  1.49  1.18  1.49  0.89  0.89  0.89  0.89  
17          1.49  1.49  1.49  1.49  1.18  1.49  0.89  0.89  0.89  0.89  
18          1.49  1.49  1.49  1.49  1.18  1.49  0.89  0.89  0.89  0.89  
19          1.49  1.49  1.49  1.49  1.18  1.49  0.89  0.89  0.89  0.89  
20          1.49  1.49  1.49  1.49  1.18  1.49  0.89  0.89  0.89  0.89  
21          1.49  1.49  1.49  1.49  1.18  1.49  0.89  0.89  0.89  0.89  
22          1.49  1.49  1.49  1.49  1.18  1.49  0.89  0.89  0.89  0.89  
23          1.49  1.49  1.49  1.49  1.18  1.49  0.89  0.89  0.89  0.89  
24          1.49  1.49  1.49  1.49  1.18  1.49  0.89  0.89  0.89  0.89  
25          1.41  1.41  1.41  1.41  1.12  1.41  0.85  0.85  0.85  0.85  
26          1.41  1.41  1.41  1.41  1.12  1.41  0.85  0.85  0.85  0.85  
27          1.41  1.41  1.41  1.41  1.12  1.41  0.85  0.85  0.85  0.85  
28          1.41  1.41  1.41  1.41  1.12  1.41  0.85  0.85  0.85  0.85  
29          1.41  1.41  1.41  1.41  1.12  1.41  0.85  0.85  0.85  0.85  
30          1.41  1.41  1.41  1.41  1.12  1.41  0.85  0.85  0.85  0.85  
31          1.41  1.41  1.41  1.41  1.12  1.41  0.85  0.85  0.85  0.85  
32          1.41  1.41  1.41  1.41  1.12  1.41  0.85  0.85  0.85  0.85  
33          1.41  1.41  1.41  1.41  1.12  1.41  0.85  0.85  0.85  0.85  
34          1.49  1.49  1.49  1.49  1.18  1.49  0.89  0.89  0.89  0.89  
35          1.49  1.49  1.49  1.49  1.18  1.49  0.89  0.89  0.89  0.89  
36          1.49  1.49  1.49  1.49  1.18  1.49  0.89  0.89  0.89  0.89  
37          1.49  1.49  1.49  1.49  1.18  1.49  0.89  0.89  0.89  0.89  
38          1.49  1.49  1.49  1.49  1.18  1.49  0.89  0.89  0.89  0.89  
39          1.49  1.49  1.49  1.49  1.18  1.49  0.89  0.89  0.89  0.89  
40          1.49  1.49  1.49  1.49  1.18  1.49  0.89  0.89  0.89  0.89  
41          1.49  1.49  1.49  1.49  1.18  1.49  0.89  0.89  0.89  0.89  
42          1.49  1.49  1.49  1.49  1.18  1.49  0.89  0.89  0.89  0.89  
43          1.49  1.49  1.49  1.49  1.18  1.49  0.89  0.89  0.89  0.89  
44          1.49  1.49  1.49  1.49  1.18  1.49  0.89  0.89  0.89  0.89  
45          1.49  1.49  1.49  1.49  1.18  1.49  0.89  0.89  0.89  0.89  
; # downloads resource k can do at front f in time t if intermediate time slot

param E:= 

[*,*,F1 ]:  K1    K2    K3    K4    K5    K6    K7    K8    K9    K10   :=
1           0.28  0.23  0.52  0.64  0.56  0.35  0.11  0.18  0.13  0.45  
2           0.28  0.23  0.52  0.64  0.56  0.35  0.11  0.18  0.13  0.45  
3           0.28  0.23  0.52  0.64  0.56  0.35  0.11  0.18  0.13  0.45  
4           0.28  0.23  0.52  0.64  0.56  0.35  0.11  0.18  0.13  0.45  
5           0.28  0.23  0.52  0.64  0.56  0.35  0.11  0.18  0.13  0.45  
6           0.28  0.23  0.52  0.64  0.56  0.35  0.11  0.18  0.13  0.45  
7           0.28  0.23  0.52  0.64  0.56  0.35  0.11  0.18  0.13  0.45  
8           0.28  0.23  0.52  0.64  0.56  0.35  0.11  0.18  0.13  0.45  
9           0.28  0.23  0.52  0.64  0.56  0.35  0.11  0.18  0.13  0.45  
10          0.28  0.23  0.52  0.64  0.56  0.35  0.11  0.18  0.13  0.45  
11          0.28  0.23  0.52  0.64  0.56  0.35  0.11  0.18  0.13  0.45  
12          0.28  0.23  0.52  0.64  0.56  0.35  0.11  0.18  0.13  0.45  
13          0.28  0.23  0.52  0.64  0.56  0.35  0.11  0.18  0.13  0.45  
14          0.28  0.23  0.52  0.64  0.56  0.35  0.11  0.18  0.13  0.45  
15          0.28  0.23  0.52  0.64  0.56  0.35  0.11  0.18  0.13  0.45  
16          0.28  0.23  0.52  0.64  0.56  0.35  0.11  0.18  0.13  0.45  
17          0.28  0.23  0.52  0.64  0.56  0.35  0.11  0.18  0.13  0.45  
18          0.28  0.23  0.52  0.64  0.56  0.35  0.11  0.18  0.13  0.45  
19          0.28  0.23  0.52  0.64  0.56  0.35  0.11  0.18  0.13  0.45  
20          0.28  0.23  0.52  0.64  0.56  0.35  0.11  0.18  0.13  0.45  
21          0.28  0.23  0.52  0.64  0.56  0.35  0.11  0.18  0.13  0.45  
22          0.28  0.23  0.52  0.64  0.56  0.35  0.11  0.18  0.13  0.45  
23          0.28  0.23  0.52  0.64  0.56  0.35  0.11  0.18  0.13  0.45  
24          0.28  0.23  0.52  0.64  0.56  0.35  0.11  0.18  0.13  0.45  
25          0.26  0.22  0.50  0.61  0.53  0.33  0.11  0.17  0.12  0.43  
26          0.26  0.22  0.50  0.61  0.53  0.33  0.11  0.17  0.12  0.43  
27          0.26  0.22  0.50  0.61  0.53  0.33  0.11  0.17  0.12  0.43  
28          0.26  0.22  0.50  0.61  0.53  0.33  0.11  0.17  0.12  0.43  
29          0.26  0.22  0.50  0.61  0.53  0.33  0.11  0.17  0.12  0.43  
30          0.26  0.22  0.50  0.61  0.53  0.33  0.11  0.17  0.12  0.43  
31          0.26  0.22  0.50  0.61  0.53  0.33  0.11  0.17  0.12  0.43  
32          0.26  0.22  0.50  0.61  0.53  0.33  0.11  0.17  0.12  0.43  
33          0.26  0.22  0.50  0.61  0.53  0.33  0.11  0.17  0.12  0.43  
34          0.28  0.23  0.52  0.64  0.56  0.35  0.11  0.18  0.13  0.45  
35          0.28  0.23  0.52  0.64  0.56  0.35  0.11  0.18  0.13  0.45  
36          0.28  0.23  0.52  0.64  0.56  0.35  0.11  0.18  0.13  0.45  
37          0.28  0.23  0.52  0.64  0.56  0.35  0.11  0.18  0.13  0.45  
38          0.28  0.23  0.52  0.64  0.56  0.35  0.11  0.18  0.13  0.45  
39          0.28  0.23  0.52  0.64  0.56  0.35  0.11  0.18  0.13  0.45  
40          0.28  0.23  0.52  0.64  0.56  0.35  0.11  0.18  0.13  0.45  
41          0.28  0.23  0.52  0.64  0.56  0.35  0.11  0.18  0.13  0.45  
42          0.28  0.23  0.52  0.64  0.56  0.35  0.11  0.18  0.13  0.45  
43          0.28  0.23  0.52  0.64  0.56  0.35  0.11  0.18  0.13  0.45  
44          0.28  0.23  0.52  0.64  0.56  0.35  0.11  0.18  0.13  0.45  
45          0.28  0.23  0.52  0.64  0.56  0.35  0.11  0.18  0.13  0.45  

[*,*,F2 ]:  K1    K2    K3    K4    K5    K6    K7    K8    K9    K10   :=
1           0.33  0.24  0.53  0.65  0.61  0.46  0.20  0.23  0.05  0.46  
2           0.33  0.24  0.53  0.65  0.61  0.46  0.20  0.23  0.05  0.46  
3           0.33  0.24  0.53  0.65  0.61  0.46  0.20  0.23  0.05  0.46  
4           0.33  0.24  0.53  0.65  0.61  0.46  0.20  0.23  0.05  0.46  
5           0.33  0.24  0.53  0.65  0.61  0.46  0.20  0.23  0.05  0.46  
6           0.33  0.24  0.53  0.65  0.61  0.46  0.20  0.23  0.05  0.46  
7           0.33  0.24  0.53  0.65  0.61  0.46  0.20  0.23  0.05  0.46  
8           0.33  0.24  0.53  0.65  0.61  0.46  0.20  0.23  0.05  0.46  
9           0.33  0.24  0.53  0.65  0.61  0.46  0.20  0.23  0.05  0.46  
10          0.33  0.24  0.53  0.65  0.61  0.46  0.20  0.23  0.05  0.46  
11          0.33  0.24  0.53  0.65  0.61  0.46  0.20  0.23  0.05  0.46  
12          0.33  0.24  0.53  0.65  0.61  0.46  0.20  0.23  0.05  0.46  
13          0.33  0.24  0.53  0.65  0.61  0.46  0.20  0.23  0.05  0.46  
14          0.33  0.24  0.53  0.65  0.61  0.46  0.20  0.23  0.05  0.46  
15          0.33  0.24  0.53  0.65  0.61  0.46  0.20  0.23  0.05  0.46  
16          0.33  0.24  0.53  0.65  0.61  0.46  0.20  0.23  0.05  0.46  
17          0.33  0.24  0.53  0.65  0.61  0.46  0.20  0.23  0.05  0.46  
18          0.33  0.24  0.53  0.65  0.61  0.46  0.20  0.23  0.05  0.46  
19          0.33  0.24  0.53  0.65  0.61  0.46  0.20  0.23  0.05  0.46  
20          0.33  0.24  0.53  0.65  0.61  0.46  0.20  0.23  0.05  0.46  
21          0.33  0.24  0.53  0.65  0.61  0.46  0.20  0.23  0.05  0.46  
22          0.33  0.24  0.53  0.65  0.61  0.46  0.20  0.23  0.05  0.46  
23          0.33  0.24  0.53  0.65  0.61  0.46  0.20  0.23  0.05  0.46  
24          0.33  0.24  0.53  0.65  0.61  0.46  0.20  0.23  0.05  0.46  
25          0.32  0.23  0.51  0.62  0.57  0.43  0.19  0.22  0.05  0.43  
26          0.32  0.23  0.51  0.62  0.57  0.43  0.19  0.22  0.05  0.43  
27          0.32  0.23  0.51  0.62  0.57  0.43  0.19  0.22  0.05  0.43  
28          0.32  0.23  0.51  0.62  0.57  0.43  0.19  0.22  0.05  0.43  
29          0.32  0.23  0.51  0.62  0.57  0.43  0.19  0.22  0.05  0.43  
30          0.32  0.23  0.51  0.62  0.57  0.43  0.19  0.22  0.05  0.43  
31          0.32  0.23  0.51  0.62  0.57  0.43  0.19  0.22  0.05  0.43  
32          0.32  0.23  0.51  0.62  0.57  0.43  0.19  0.22  0.05  0.43  
33          0.32  0.23  0.51  0.62  0.57  0.43  0.19  0.22  0.05  0.43  
34          0.33  0.24  0.53  0.65  0.61  0.46  0.20  0.23  0.05  0.46  
35          0.33  0.24  0.53  0.65  0.61  0.46  0.20  0.23  0.05  0.46  
36          0.33  0.24  0.53  0.65  0.61  0.46  0.20  0.23  0.05  0.46  
37          0.33  0.24  0.53  0.65  0.61  0.46  0.20  0.23  0.05  0.46  
38          0.33  0.24  0.53  0.65  0.61  0.46  0.20  0.23  0.05  0.46  
39          0.33  0.24  0.53  0.65  0.61  0.46  0.20  0.23  0.05  0.46  
40          0.33  0.24  0.53  0.65  0.61  0.46  0.20  0.23  0.05  0.46  
41          0.33  0.24  0.53  0.65  0.61  0.46  0.20  0.23  0.05  0.46  
42          0.33  0.24  0.53  0.65  0.61  0.46  0.20  0.23  0.05  0.46  
43          0.33  0.24  0.53  0.65  0.61  0.46  0.20  0.23  0.05  0.46  
44          0.33  0.24  0.53  0.65  0.61  0.46  0.20  0.23  0.05  0.46  
45          0.33  0.24  0.53  0.65  0.61  0.46  0.20  0.23  0.05  0.46  

[*,*,F3 ]:  K1    K2    K3    K4    K5    K6    K7    K8    K9    K10   :=
1           0.39  0.31  0.51  0.58  0.56  0.39  0.15  0.21  0.12  0.40  
2           0.39  0.31  0.51  0.58  0.56  0.39  0.15  0.21  0.12  0.40  
3           0.39  0.31  0.51  0.58  0.56  0.39  0.15  0.21  0.12  0.40  
4           0.39  0.31  0.51  0.58  0.56  0.39  0.15  0.21  0.12  0.40  
5           0.39  0.31  0.51  0.58  0.56  0.39  0.15  0.21  0.12  0.40  
6           0.39  0.31  0.51  0.58  0.56  0.39  0.15  0.21  0.12  0.40  
7           0.39  0.31  0.51  0.58  0.56  0.39  0.15  0.21  0.12  0.40  
8           0.39  0.31  0.51  0.58  0.56  0.39  0.15  0.21  0.12  0.40  
9           0.39  0.31  0.51  0.58  0.56  0.39  0.15  0.21  0.12  0.40  
10          0.39  0.31  0.51  0.58  0.56  0.39  0.15  0.21  0.12  0.40  
11          0.39  0.31  0.51  0.58  0.56  0.39  0.15  0.21  0.12  0.40  
12          0.39  0.31  0.51  0.58  0.56  0.39  0.15  0.21  0.12  0.40  
13          0.39  0.31  0.51  0.58  0.56  0.39  0.15  0.21  0.12  0.40  
14          0.39  0.31  0.51  0.58  0.56  0.39  0.15  0.21  0.12  0.40  
15          0.39  0.31  0.51  0.58  0.56  0.39  0.15  0.21  0.12  0.40  
16          0.39  0.31  0.51  0.58  0.56  0.39  0.15  0.21  0.12  0.40  
17          0.39  0.31  0.51  0.58  0.56  0.39  0.15  0.21  0.12  0.40  
18          0.39  0.31  0.51  0.58  0.56  0.39  0.15  0.21  0.12  0.40  
19          0.39  0.31  0.51  0.58  0.56  0.39  0.15  0.21  0.12  0.40  
20          0.39  0.31  0.51  0.58  0.56  0.39  0.15  0.21  0.12  0.40  
21          0.39  0.31  0.51  0.58  0.56  0.39  0.15  0.21  0.12  0.40  
22          0.39  0.31  0.51  0.58  0.56  0.39  0.15  0.21  0.12  0.40  
23          0.39  0.31  0.51  0.58  0.56  0.39  0.15  0.21  0.12  0.40  
24          0.39  0.31  0.51  0.58  0.56  0.39  0.15  0.21  0.12  0.40  
25          0.37  0.30  0.48  0.55  0.53  0.37  0.14  0.20  0.12  0.38  
26          0.37  0.30  0.48  0.55  0.53  0.37  0.14  0.20  0.12  0.38  
27          0.37  0.30  0.48  0.55  0.53  0.37  0.14  0.20  0.12  0.38  
28          0.37  0.30  0.48  0.55  0.53  0.37  0.14  0.20  0.12  0.38  
29          0.37  0.30  0.48  0.55  0.53  0.37  0.14  0.20  0.12  0.38  
30          0.37  0.30  0.48  0.55  0.53  0.37  0.14  0.20  0.12  0.38  
31          0.37  0.30  0.48  0.55  0.53  0.37  0.14  0.20  0.12  0.38  
32          0.37  0.30  0.48  0.55  0.53  0.37  0.14  0.20  0.12  0.38  
33          0.37  0.30  0.48  0.55  0.53  0.37  0.14  0.20  0.12  0.38  
34          0.39  0.31  0.51  0.58  0.56  0.39  0.15  0.21  0.12  0.40  
35          0.39  0.31  0.51  0.58  0.56  0.39  0.15  0.21  0.12  0.40  
36          0.39  0.31  0.51  0.58  0.56  0.39  0.15  0.21  0.12  0.40  
37          0.39  0.31  0.51  0.58  0.56  0.39  0.15  0.21  0.12  0.40  
38          0.39  0.31  0.51  0.58  0.56  0.39  0.15  0.21  0.12  0.40  
39          0.39  0.31  0.51  0.58  0.56  0.39  0.15  0.21  0.12  0.40  
40          0.39  0.31  0.51  0.58  0.56  0.39  0.15  0.21  0.12  0.40  
41          0.39  0.31  0.51  0.58  0.56  0.39  0.15  0.21  0.12  0.40  
42          0.39  0.31  0.51  0.58  0.56  0.39  0.15  0.21  0.12  0.40  
43          0.39  0.31  0.51  0.58  0.56  0.39  0.15  0.21  0.12  0.40  
44          0.39  0.31  0.51  0.58  0.56  0.39  0.15  0.21  0.12  0.40  
45          0.39  0.31  0.51  0.58  0.56  0.39  0.15  0.21  0.12  0.40  
; # downloads resource k can do at front f in time t if starting or ending flight

param W: 
	F1        F2        F3        :=
1	520.58    520.58    520.58    
2	2082.32   2082.32   2082.32   
3	2082.32   2082.32   2082.32   
4	2082.32   2082.32   2082.32   
5	2082.32   2082.32   2082.32   
6	2082.32   2082.32   2082.32   
7	2082.32   2082.32   2082.32   
8	2082.32   2082.32   2082.32   
9	2082.32   2082.32   2082.32   
10	2082.32   2082.32   2082.32   
11	2082.32   2082.32   2082.32   
12	2082.32   2082.32   2082.32   
13	2082.32   2082.32   2082.32   
14	2082.32   2082.32   2082.32   
15	2082.32   2082.32   2082.32   
16	2082.32   2082.32   2082.32   
17	2082.32   2082.32   2082.32   
18	2082.32   2082.32   2082.32   
19	2082.32   2082.32   2082.32   
20	2082.32   2082.32   2082.32   
21	2082.32   2082.32   2082.32   
22	2082.32   2082.32   2082.32   
23	2082.32   2082.32   2082.32   
24	2082.32   2082.32   2082.32   
25	2082.32   2082.32   2082.32   
26	2082.32   2082.32   2082.32   
27	2082.32   2082.32   2082.32   
28	2082.32   2082.32   2082.32   
29	2082.32   2082.32   2082.32   
30	2082.32   2082.32   2082.32   
31	2082.32   2082.32   2082.32   
32	2082.32   2082.32   2082.32   
33	2082.32   2082.32   2082.32   
34	2082.32   2082.32   2082.32   
35	2082.32   2082.32   2082.32   
36	2082.32   2082.32   2082.32   
37	2082.32   2082.32   2082.32   
38	2082.32   2082.32   2082.32   
39	2082.32   2082.32   2082.32   
40	2082.32   2082.32   2082.32   
41	2082.32   2082.32   2082.32   
42	2082.32   2082.32   2082.32   
43	2082.32   2082.32   2082.32   
44	2082.32   2082.32   2082.32   
45	520.58    520.58    520.58    
; # water needed at front f in time slot t

param M := 100000000; 

param a1:= 10000000;

param a2:= 100;

param a3:= 0.0001;
